120
150
51
40
56
54
43
46
48
55
40
44
50
43
49
44
52
43
42
46
52
59
49
40
52
49
44
45
48
51
51
43
48
57
42
57
43
54
60
53
46
43
43
59
45
48
46
57
49
44
40
52
59
49
42
50
54
46
40
40
40
56
51
43
45
49
56
43
53
54
46
46
59
46
45
40
40
40
40
55
55
40
40
40
48
46
56
55
49
46
50
52
48
58
46
46
40
51
60
43
47
54
49
47
43
48
59
52
46
53
44
55
50
45
47
55
48
43
57
50
50
51
